ilp_joint_2/output/weathering_ilp.lp
Maximize
  0.1530089864912136 Z_131_1_0 + 0.00950524395902963 Z_131_1_1
   + 0.0250653551716546 Z_131_1_2 + 0.3743169633510259 Z_131_1_3
   + 0.00176250767806796 Z_131_2_0 + 0.00279461162122085 Z_131_2_1
   + 0.477835089598292 Z_131_2_2 + 0.00354600395668386 Z_131_2_3
   + 0.3787570226780679 Z_110_1_0 + 0.0403490653495294 Z_110_1_1
   + 0.00833732309573687 Z_110_1_2 + 0.0576466171007858 Z_110_1_3
   + 0.00263173083836787 Z_110_2_0 + 0.00212951686131341 Z_110_2_1
   + 0.4602027258907023 Z_110_2_2 + 0.00277974316271132 Z_110_2_3
   + 0.00187395866379741 Z_37_1_0 + 0.0427266630275093 Z_37_1_1
   + 0.0141205007098208 Z_37_1_2 + 0.3431085216750095 Z_37_1_3
   + 0.0115695608397673 Z_6_1_0 + 0.0184283074825336 Z_6_1_1
   + 0.00878463178233113 Z_6_1_2 + 0.4166757218499527 Z_6_1_3
   + 0.001200797717473 Z_6_2_0 + 0.00359047276806529 Z_6_2_1
   + 0.4784314947979942 Z_6_2_2 + 0.00466268441137002 Z_6_2_3 + [
   2 Z_131_1_0 * Z_6_1_0 + 2 Z_131_1_1 * Z_6_1_1 + 2 Z_131_1_2 * Z_6_1_2
   + 2 Z_131_1_3 * Z_6_1_3 + 2 Z_131_2_0 * Z_110_2_0
   + 2 Z_131_2_0 * Z_6_2_0 + 2 Z_131_2_1 * Z_110_2_1
   + 2 Z_131_2_1 * Z_6_2_1 + 2 Z_131_2_2 * Z_110_2_2
   + 2 Z_131_2_2 * Z_6_2_2 + 2 Z_131_2_3 * Z_110_2_3
   + 2 Z_131_2_3 * Z_6_2_3 + 1.059548109617216 Z_110_1_0 * Z_37_1_0
   + 1.059548109617216 Z_110_1_1 * Z_37_1_1
   + 1.059548109617216 Z_110_1_2 * Z_37_1_2
   + 1.059548109617216 Z_110_1_3 * Z_37_1_3 + 2 Z_110_2_0 * Z_6_2_0
   + 2 Z_110_2_1 * Z_6_2_1 + 2 Z_110_2_2 * Z_6_2_2 + 2 Z_110_2_3 * Z_6_2_3
   ] / 2 
Subject To
 constraint1_1311: Z_131_1_0 + Z_131_1_1 + Z_131_1_2 + Z_131_1_3 <= 1
 constraint1_1312: Z_131_2_0 + Z_131_2_1 + Z_131_2_2 + Z_131_2_3 <= 1
 constraint1_1101: Z_110_1_0 + Z_110_1_1 + Z_110_1_2 + Z_110_1_3 <= 1
 constraint1_1102: Z_110_2_0 + Z_110_2_1 + Z_110_2_2 + Z_110_2_3 <= 1
 constraint1_371: Z_37_1_0 + Z_37_1_1 + Z_37_1_2 + Z_37_1_3 <= 1
 constraint1_61: Z_6_1_0 + Z_6_1_1 + Z_6_1_2 + Z_6_1_3 <= 1
 constraint1_62: Z_6_2_0 + Z_6_2_1 + Z_6_2_2 + Z_6_2_3 <= 1
 constraint2_1310: Z_131_1_0 + Z_131_2_0 <= 1
 constraint2_1311: Z_131_1_1 + Z_131_2_1 <= 1
 constraint2_1312: Z_131_1_2 + Z_131_2_2 <= 1
 constraint2_1313: Z_131_1_3 + Z_131_2_3 <= 1
 constraint2_1100: Z_110_1_0 + Z_110_2_0 <= 1
 constraint2_1101: Z_110_1_1 + Z_110_2_1 <= 1
 constraint2_1102: Z_110_1_2 + Z_110_2_2 <= 1
 constraint2_1103: Z_110_1_3 + Z_110_2_3 <= 1
 constraint2_50: <= 1
 constraint2_51: <= 1
 constraint2_52: <= 1
 constraint2_53: <= 1
 constraint2_370: Z_37_1_0 <= 1
 constraint2_371: Z_37_1_1 <= 1
 constraint2_372: Z_37_1_2 <= 1
 constraint2_373: Z_37_1_3 <= 1
 constraint2_60: Z_6_1_0 + Z_6_2_0 <= 1
 constraint2_61: Z_6_1_1 + Z_6_2_1 <= 1
 constraint2_62: Z_6_1_2 + Z_6_2_2 <= 1
 constraint2_63: Z_6_1_3 + Z_6_2_3 <= 1
 constraint2_270: <= 1
 constraint2_271: <= 1
 constraint2_272: <= 1
 constraint2_273: <= 1
 constraint2_1160: <= 1
 constraint2_1161: <= 1
 constraint2_1162: <= 1
 constraint2_1163: <= 1
Bounds
Binaries
 Z_131_1_0 Z_131_1_1 Z_131_1_2 Z_131_1_3 Z_131_2_0 Z_131_2_1 Z_131_2_2
 Z_131_2_3 Z_110_1_0 Z_110_1_1 Z_110_1_2 Z_110_1_3 Z_110_2_0 Z_110_2_1
 Z_110_2_2 Z_110_2_3 Z_37_1_0 Z_37_1_1 Z_37_1_2 Z_37_1_3 Z_6_1_0 Z_6_1_1
 Z_6_1_2 Z_6_1_3 Z_6_2_0 Z_6_2_1 Z_6_2_2 Z_6_2_3
End
