ilp_joint_2/output/weathering_ilp.mps
NAME weathering_srl_ilp
* Max problem is converted into Min one
ROWS
 N  OBJ
 L  constraint1_1311
 L  constraint1_1312
 L  constraint1_1101
 L  constraint1_1102
 L  constraint1_371
 L  constraint1_61
 L  constraint1_62
 L  constraint2_1310
 L  constraint2_1311
 L  constraint2_1312
 L  constraint2_1313
 L  constraint2_1100
 L  constraint2_1101
 L  constraint2_1102
 L  constraint2_1103
 L  constraint2_50
 L  constraint2_51
 L  constraint2_52
 L  constraint2_53
 L  constraint2_370
 L  constraint2_371
 L  constraint2_372
 L  constraint2_373
 L  constraint2_60
 L  constraint2_61
 L  constraint2_62
 L  constraint2_63
 L  constraint2_270
 L  constraint2_271
 L  constraint2_272
 L  constraint2_273
 L  constraint2_1160
 L  constraint2_1161
 L  constraint2_1162
 L  constraint2_1163
COLUMNS
    MARKER    'MARKER'                 'INTORG'
    Z_131_1_0  OBJ       -1.5300898649121358e-01
    Z_131_1_0  constraint1_1311  1
    Z_131_1_0  constraint2_1310  1
    Z_131_1_1  OBJ       -9.5052439590296300e-03
    Z_131_1_1  constraint1_1311  1
    Z_131_1_1  constraint2_1311  1
    Z_131_1_2  OBJ       -2.5065355171654591e-02
    Z_131_1_2  constraint1_1311  1
    Z_131_1_2  constraint2_1312  1
    Z_131_1_3  OBJ       -3.7431696335102588e-01
    Z_131_1_3  constraint1_1311  1
    Z_131_1_3  constraint2_1313  1
    Z_131_2_0  OBJ       -1.7625076780679594e-03
    Z_131_2_0  constraint1_1312  1
    Z_131_2_0  constraint2_1310  1
    Z_131_2_1  OBJ       -2.7946116212208549e-03
    Z_131_2_1  constraint1_1312  1
    Z_131_2_1  constraint2_1311  1
    Z_131_2_2  OBJ       -4.7783508959829202e-01
    Z_131_2_2  constraint1_1312  1
    Z_131_2_2  constraint2_1312  1
    Z_131_2_3  OBJ       -3.5460039566838622e-03
    Z_131_2_3  constraint1_1312  1
    Z_131_2_3  constraint2_1313  1
    Z_110_1_0  OBJ       -3.7875702267806788e-01
    Z_110_1_0  constraint1_1101  1
    Z_110_1_0  constraint2_1100  1
    Z_110_1_1  OBJ       -4.0349065349529367e-02
    Z_110_1_1  constraint1_1101  1
    Z_110_1_1  constraint2_1101  1
    Z_110_1_2  OBJ       -8.3373230957368705e-03
    Z_110_1_2  constraint1_1101  1
    Z_110_1_2  constraint2_1102  1
    Z_110_1_3  OBJ       -5.7646617100785828e-02
    Z_110_1_3  constraint1_1101  1
    Z_110_1_3  constraint2_1103  1
    Z_110_2_0  OBJ       -2.6317308383678739e-03
    Z_110_2_0  constraint1_1102  1
    Z_110_2_0  constraint2_1100  1
    Z_110_2_1  OBJ       -2.1295168613134074e-03
    Z_110_2_1  constraint1_1102  1
    Z_110_2_1  constraint2_1101  1
    Z_110_2_2  OBJ       -4.6020272589070227e-01
    Z_110_2_2  constraint1_1102  1
    Z_110_2_2  constraint2_1102  1
    Z_110_2_3  OBJ       -2.7797431627113243e-03
    Z_110_2_3  constraint1_1102  1
    Z_110_2_3  constraint2_1103  1
    Z_37_1_0  OBJ       -1.8739586637974148e-03
    Z_37_1_0  constraint1_371  1
    Z_37_1_0  constraint2_370  1
    Z_37_1_1  OBJ       -4.2726663027509271e-02
    Z_37_1_1  constraint1_371  1
    Z_37_1_1  constraint2_371  1
    Z_37_1_2  OBJ       -1.4120500709820794e-02
    Z_37_1_2  constraint1_371  1
    Z_37_1_2  constraint2_372  1
    Z_37_1_3  OBJ       -3.4310852167500955e-01
    Z_37_1_3  constraint1_371  1
    Z_37_1_3  constraint2_373  1
    Z_6_1_0   OBJ       -1.1569560839767290e-02
    Z_6_1_0   constraint1_61  1
    Z_6_1_0   constraint2_60  1
    Z_6_1_1   OBJ       -1.8428307482533601e-02
    Z_6_1_1   constraint1_61  1
    Z_6_1_1   constraint2_61  1
    Z_6_1_2   OBJ       -8.7846317823311315e-03
    Z_6_1_2   constraint1_61  1
    Z_6_1_2   constraint2_62  1
    Z_6_1_3   OBJ       -4.1667572184995266e-01
    Z_6_1_3   constraint1_61  1
    Z_6_1_3   constraint2_63  1
    Z_6_2_0   OBJ       -1.2007977174730011e-03
    Z_6_2_0   constraint1_62  1
    Z_6_2_0   constraint2_60  1
    Z_6_2_1   OBJ       -3.5904727680652893e-03
    Z_6_2_1   constraint1_62  1
    Z_6_2_1   constraint2_61  1
    Z_6_2_2   OBJ       -4.7843149479799424e-01
    Z_6_2_2   constraint1_62  1
    Z_6_2_2   constraint2_62  1
    Z_6_2_3   OBJ       -4.6626844113700191e-03
    Z_6_2_3   constraint1_62  1
    Z_6_2_3   constraint2_63  1
    MARKER    'MARKER'                 'INTEND'
RHS
    RHS1      constraint1_1311  1
    RHS1      constraint1_1312  1
    RHS1      constraint1_1101  1
    RHS1      constraint1_1102  1
    RHS1      constraint1_371  1
    RHS1      constraint1_61  1
    RHS1      constraint1_62  1
    RHS1      constraint2_1310  1
    RHS1      constraint2_1311  1
    RHS1      constraint2_1312  1
    RHS1      constraint2_1313  1
    RHS1      constraint2_1100  1
    RHS1      constraint2_1101  1
    RHS1      constraint2_1102  1
    RHS1      constraint2_1103  1
    RHS1      constraint2_50  1
    RHS1      constraint2_51  1
    RHS1      constraint2_52  1
    RHS1      constraint2_53  1
    RHS1      constraint2_370  1
    RHS1      constraint2_371  1
    RHS1      constraint2_372  1
    RHS1      constraint2_373  1
    RHS1      constraint2_60  1
    RHS1      constraint2_61  1
    RHS1      constraint2_62  1
    RHS1      constraint2_63  1
    RHS1      constraint2_270  1
    RHS1      constraint2_271  1
    RHS1      constraint2_272  1
    RHS1      constraint2_273  1
    RHS1      constraint2_1160  1
    RHS1      constraint2_1161  1
    RHS1      constraint2_1162  1
    RHS1      constraint2_1163  1
BOUNDS
 UP BND1      Z_131_1_0  1
 UP BND1      Z_131_1_1  1
 UP BND1      Z_131_1_2  1
 UP BND1      Z_131_1_3  1
 UP BND1      Z_131_2_0  1
 UP BND1      Z_131_2_1  1
 UP BND1      Z_131_2_2  1
 UP BND1      Z_131_2_3  1
 UP BND1      Z_110_1_0  1
 UP BND1      Z_110_1_1  1
 UP BND1      Z_110_1_2  1
 UP BND1      Z_110_1_3  1
 UP BND1      Z_110_2_0  1
 UP BND1      Z_110_2_1  1
 UP BND1      Z_110_2_2  1
 UP BND1      Z_110_2_3  1
 UP BND1      Z_37_1_0  1
 UP BND1      Z_37_1_1  1
 UP BND1      Z_37_1_2  1
 UP BND1      Z_37_1_3  1
 UP BND1      Z_6_1_0   1
 UP BND1      Z_6_1_1   1
 UP BND1      Z_6_1_2   1
 UP BND1      Z_6_1_3   1
 UP BND1      Z_6_2_0   1
 UP BND1      Z_6_2_1   1
 UP BND1      Z_6_2_2   1
 UP BND1      Z_6_2_3   1
QUADOBJ
    Z_131_1_0  Z_6_1_0   -1
    Z_131_1_1  Z_6_1_1   -1
    Z_131_1_2  Z_6_1_2   -1
    Z_131_1_3  Z_6_1_3   -1
    Z_131_2_0  Z_110_2_0  -1
    Z_131_2_0  Z_6_2_0   -1
    Z_131_2_1  Z_110_2_1  -1
    Z_131_2_1  Z_6_2_1   -1
    Z_131_2_2  Z_110_2_2  -1
    Z_131_2_2  Z_6_2_2   -1
    Z_131_2_3  Z_110_2_3  -1
    Z_131_2_3  Z_6_2_3   -1
    Z_110_1_0  Z_37_1_0  -5.2977405480860806e-01
    Z_110_1_1  Z_37_1_1  -5.2977405480860806e-01
    Z_110_1_2  Z_37_1_2  -5.2977405480860806e-01
    Z_110_1_3  Z_37_1_3  -5.2977405480860806e-01
    Z_110_2_0  Z_6_2_0   -1
    Z_110_2_1  Z_6_2_1   -1
    Z_110_2_2  Z_6_2_2   -1
    Z_110_2_3  Z_6_2_3   -1
ENDATA
