ilp_joint_2/output/weathering_ilp.sol
# Solution for model weathering_srl_ilp
# Objective value = 7.1379911890723706e+00
Z_131_1_0 0
Z_131_1_1 0
Z_131_1_2 0
Z_131_1_3 1
Z_131_2_0 0
Z_131_2_1 0
Z_131_2_2 1
Z_131_2_3 0
Z_110_1_0 0
Z_110_1_1 0
Z_110_1_2 0
Z_110_1_3 1
Z_110_2_0 0
Z_110_2_1 0
Z_110_2_2 1
Z_110_2_3 0
Z_37_1_0 0
Z_37_1_1 0
Z_37_1_2 0
Z_37_1_3 1
Z_6_1_0 0
Z_6_1_1 0
Z_6_1_2 0
Z_6_1_3 1
Z_6_2_0 0
Z_6_2_1 0
Z_6_2_2 1
Z_6_2_3 0
